column=6;
row=6;
max=4;
left=[1, 2, 2, 3, 0, 4];
right=[0, 4, 3, 1, 2, 2];
top=[1, 0, 4, 2, 3, 4];
bottom=[0, 1, 3, 1, 2, 2];
Board=[|1,3,4,2,0,0|2,0,1,0,0,4|0,2,0,4,1,3|0,0,0,0,0,1|0,0,0,0,4,0|4,0,3,1,0,0|]